(set-info :source |printed by MathSAT|)
(declare-fun |main::local_14@2| () (_ BitVec 32))
(declare-fun |f91::x__param__@2| () (_ BitVec 32))
(declare-fun |f91::x@2| () (_ BitVec 32))
(declare-fun |f91::iVar1@3| () (_ BitVec 32))
(declare-fun |f91::__retval__@2| () (_ BitVec 32))
(declare-fun |main::iVar1@4| () (_ BitVec 32))
(declare-fun |main::iVar1@5| () (_ BitVec 32))
(assert (let ((.def_14 (= |f91::x__param__@2| |f91::x@2|)))(let ((.def_12 (= |main::local_14@2| |f91::x__param__@2|)))(let ((.def_94 (and .def_12 .def_14)))(let ((.def_16 (bvslt |f91::x@2| (_ bv101 32))))(let ((.def_20 (not .def_16)))(let ((.def_95 (and .def_20 .def_94)))(let ((.def_26 (bvadd (_ bv4294967286 32) |f91::x@2|)))(let ((.def_28 (= .def_26 |f91::iVar1@3|)))(let ((.def_96 (and .def_28 .def_95)))(let ((.def_36 (= |f91::iVar1@3| |f91::__retval__@2|)))(let ((.def_97 (and .def_36 .def_96)))(let ((.def_39 (= |f91::__retval__@2| |main::iVar1@4|)))(let ((.def_98 (and .def_39 .def_97)))(let ((.def_41 (= |main::iVar1@4| (_ bv91 32))))(let ((.def_43 (not .def_41)))(let ((.def_99 (and .def_43 .def_98)))(let ((.def_45 (bvslt (_ bv102 32) |main::local_14@2|)))(let ((.def_48 (not .def_45)))(let ((.def_100 (and .def_48 .def_99)))(let ((.def_62 (= |main::iVar1@5| (_ bv1048576 32))))(let ((.def_101 (and .def_62 .def_100))).def_101))))))))))))))))))))))